NAME /Users/henri/Research/solvers/instances/idol-instances/robust/collection/cbp_Subramanyam_et_al_2020/CapBud_N10_8/models/uncertain_technology_matrix/
ROWS
 N  OBJ
 L  capacity
 L  c_705
 L  c_706
 L  c_707
 L  c_708
 L  c_709
 L  c_710
 L  c_711
 L  c_712
 L  c_713
 L  c_714
COLUMNS
    MARKER    'MARKER'                 'INTORG'
    x_0        OBJ        -2.27431
    x_0        c_705      1
    x_0        capacity   0.454863
    x_1        OBJ        -8.47017
    x_1        c_706      1
    x_1        capacity   1.69403
    x_2        OBJ        -6.01626
    x_2        c_707      1
    x_2        capacity   1.20325
    x_3        OBJ        -7.53261
    x_3        c_708      1
    x_3        capacity   1.50652
    x_4        OBJ        -2.25809
    x_4        c_709      1
    x_4        capacity   0.451618
    x_5        OBJ        -7.51381
    x_5        c_710      1
    x_5        capacity   1.50276
    x_6        OBJ        -8.36053
    x_6        c_711      1
    x_6        capacity   1.67211
    x_7        OBJ        -5.42017
    x_7        c_712      1
    x_7        capacity   1.08403
    x_8        OBJ        -0.274007
    x_8        c_713      1
    x_8        capacity   0.0548015
    x_9        OBJ        -3.29973
    x_9        c_714      1
    x_9        capacity   0.659946
    y_0        OBJ        -1.81945
    y_0        c_705      1
    y_0        capacity   0.454863
    y_1        OBJ        -6.77614
    y_1        c_706      1
    y_1        capacity   1.69403
    y_2        OBJ        -4.81301
    y_2        c_707      1
    y_2        capacity   1.20325
    y_3        OBJ        -6.02609
    y_3        c_708      1
    y_3        capacity   1.50652
    y_4        OBJ        -1.80647
    y_4        c_709      1
    y_4        capacity   0.451618
    y_5        OBJ        -6.01105
    y_5        c_710      1
    y_5        capacity   1.50276
    y_6        OBJ        -6.68843
    y_6        c_711      1
    y_6        capacity   1.67211
    y_7        OBJ        -4.33614
    y_7        c_712      1
    y_7        capacity   1.08403
    y_8        OBJ        -0.219206
    y_8        c_713      1
    y_8        capacity   0.0548015
    y_9        OBJ        -2.63978
    y_9        c_714      1
    y_9        capacity   0.659946
    MARKER    'MARKER'                 'INTEND'
RHS
    RHS       capacity   25.7098
    RHS       c_705      1
    RHS       c_706      1
    RHS       c_707      1
    RHS       c_708      1
    RHS       c_709      1
    RHS       c_710      1
    RHS       c_711      1
    RHS       c_712      1
    RHS       c_713      1
    RHS       c_714      1
BOUNDS
 LI BND       x_0        0
 UI BND       x_0        1
 LI BND       x_1        0
 UI BND       x_1        1
 LI BND       x_2        0
 UI BND       x_2        1
 LI BND       x_3        0
 UI BND       x_3        1
 LI BND       x_4        0
 UI BND       x_4        1
 LI BND       x_5        0
 UI BND       x_5        1
 LI BND       x_6        0
 UI BND       x_6        1
 LI BND       x_7        0
 UI BND       x_7        1
 LI BND       x_8        0
 UI BND       x_8        1
 LI BND       x_9        0
 UI BND       x_9        1
 LI BND       y_0        0
 UI BND       y_0        1
 LI BND       y_1        0
 UI BND       y_1        1
 LI BND       y_2        0
 UI BND       y_2        1
 LI BND       y_3        0
 UI BND       y_3        1
 LI BND       y_4        0
 UI BND       y_4        1
 LI BND       y_5        0
 UI BND       y_5        1
 LI BND       y_6        0
 UI BND       y_6        1
 LI BND       y_7        0
 UI BND       y_7        1
 LI BND       y_8        0
 UI BND       y_8        1
 LI BND       y_9        0
 UI BND       y_9        1
ENDATA
